# Solution for model Assign
# Objective value = 5
v0,0 1
v0,1 0
v0,2 0
v0,3 0
v0,4 0
v1,0 0
v1,1 0
v1,2 0
v1,3 1
v1,4 0
v2,0 0
v2,1 0
v2,2 0
v2,3 0
v2,4 1
v3,0 0
v3,1 0
v3,2 1
v3,3 0
v3,4 0
v4,0 0
v4,1 1
v4,2 0
v4,3 0
v4,4 0
w0 1
w1 1
w2 1
w3 1
w4 1
